s 1
v 1 2 1768515943 4 84215041 6 -1600085861 1852730984 9 168430082 -673720369 -1515870820 1936946025 1094795574 15 -589505328 17 2021161066 1179010615 336860164 -21 -1347440738 2105376107 24 421075205 
t 1ms